11684.0
12, 20, 29, 46, 63, 64, 72, 74, 85, 89, 147, 157, 163, 164, 169, 181, 204, 242, 271, 273, 292, 294, 307, 313, 322, 323, 343, 375, 391, 423, 483, 487, 490, 491, 498, 505, 524, 538, 546, 562, 583, 584, 588, 591, 637, 655, 663, 665, 668, 673, 698, 764, 792, 794, 799, 827, 838, 849, 852, 883, 892, 895, 921, 938, 946, 986, 988